p cnf 190 280
1 0
-2 1 0
-1 2 0
-3 2 0
-2 3 0
-4 3 0
-3 4 0
-4 6 7 0
-6 -7 0
-6 4 0
-7 4 0
-8 2 0
-9 2 0
-10 2 0
-11 2 0
-11 13 14 0
-13 11 0
-14 11 0
-15 2 0
-15 17 18 0
-17 15 0
-18 15 0
-19 2 0
-2 19 0
-20 19 0
-19 20 0
-21 19 0
-19 21 0
-22 2 0
-2 22 0
-23 22 0
-22 23 0
-24 23 0
-23 24 0
-24 26 27 28 29 0
-26 -27 0
-26 -28 0
-26 -29 0
-27 -28 0
-27 -29 0
-28 -29 0
-26 24 0
-27 24 0
-28 24 0
-29 24 0
-30 2 0
-31 2 0
-32 2 0
-33 2 0
-34 2 0
-35 2 0
-2 35 0
-35 37 38 39 0
-37 -38 0
-37 -39 0
-38 -39 0
-37 35 0
-38 35 0
-39 35 0
-40 2 0
-41 2 0
-42 2 0
-43 2 0
-44 2 0
-45 2 0
-46 2 0
-47 2 0
-48 2 0
-49 2 0
-50 2 0
-51 2 0
-52 2 0
-2 52 0
-53 2 0
-54 2 0
-55 2 0
-56 2 0
-57 2 0
-58 2 0
-59 2 0
-60 2 0
-61 2 0
-62 2 0
-2 62 0
-63 2 0
-64 2 0
-65 2 0
-66 65 0
-65 66 0
-66 68 69 0
-68 66 0
-69 66 0
-70 65 0
-65 70 0
-70 72 73 74 75 0
-72 -73 0
-72 -74 0
-72 -75 0
-73 -74 0
-73 -75 0
-74 -75 0
-72 70 0
-73 70 0
-74 70 0
-75 70 0
-76 2 0
-77 2 0
-78 2 0
-79 2 0
-80 2 0
-81 2 0
-82 2 0
-83 2 0
-84 83 0
-83 84 0
-84 86 87 88 0
-86 -87 0
-86 -88 0
-87 -88 0
-86 84 0
-87 84 0
-88 84 0
-89 2 0
-90 2 0
-2 90 0
-91 2 0
-92 2 0
-93 2 0
-94 2 0
-95 2 0
-96 2 0
-2 96 0
-97 2 0
-98 2 0
-99 2 0
-2 99 0
-100 2 0
-2 100 0
-101 1 0
-102 101 0
-101 102 0
-103 101 0
-101 103 0
-104 101 0
-101 104 0
-105 101 0
-101 105 0
-106 101 0
-101 106 0
-107 101 0
-101 107 0
-107 109 110 111 112 113 114 0
-109 -110 0
-109 -111 0
-109 -112 0
-109 -113 0
-109 -114 0
-110 -111 0
-110 -112 0
-110 -113 0
-110 -114 0
-111 -112 0
-111 -113 0
-111 -114 0
-112 -113 0
-112 -114 0
-113 -114 0
-109 107 0
-110 107 0
-111 107 0
-112 107 0
-113 107 0
-114 107 0
-115 101 0
-101 115 0
-116 101 0
-101 116 0
-117 101 0
-101 117 0
-118 117 0
-119 117 0
-120 117 0
-117 120 0
-120 122 123 124 0
-122 -123 0
-122 -124 0
-123 -124 0
-122 120 0
-123 120 0
-124 120 0
-125 101 0
-101 125 0
-126 101 0
-101 126 0
-127 101 0
-128 101 0
-101 128 0
-129 128 0
-128 129 0
-130 101 0
-101 130 0
-131 1 0
-132 131 0
-131 132 0
-132 134 135 136 137 138 139 140 141 142 0
-134 132 0
-135 132 0
-136 132 0
-137 132 0
-138 132 0
-139 132 0
-140 132 0
-141 132 0
-142 132 0
-143 131 0
-131 143 0
-143 145 146 147 148 0
-145 143 0
-146 143 0
-147 143 0
-148 143 0
-149 131 0
-131 149 0
-150 131 0
-131 150 0
-151 131 0
-131 151 0
-152 131 0
-131 152 0
-153 131 0
-131 153 0
-154 131 0
-155 131 0
-156 131 0
-157 131 0
-158 157 0
-157 158 0
-158 160 161 162 166 0
-160 158 0
-161 158 0
-162 158 0
-162 164 165 0
-164 -165 0
-164 162 0
-165 162 0
-166 158 0
-167 131 0
-168 131 0
-131 168 0
-169 131 0
-170 131 0
-171 131 0
-172 131 0
-173 131 0
-174 131 0
-175 131 0
-176 131 0
-177 131 0
-178 131 0
-131 178 0
-179 131 0
-180 131 0
-181 131 0
-182 131 0
-183 131 0
-184 131 0
-185 131 0
-131 185 0
-186 131 0
-187 131 0
-188 131 0
-131 188 0
-189 131 0
-131 189 0
-190 131 0
-131 190 0
-114 127 0
-111 127 0
-113 127 0
-110 127 0